(set-info :smt-lib-version 2.6)
(set-logic UFNIRA)
(set-info :source |
Generated by: Geoff Sutcliffe
Generated on: 2026-03-11
Generator: TPTPWorld
Application: Benchmarking automated theorem provers
Time limit: 120.0

These benchmarks are translations from the TPTP Library (Thousands of
Problems for Theorem Provers), see http://www.cs.miami.edu/~tptp/

The TPTP is maintained by Geoff Sutcliffe, and he contributed this
selection of benchmarks to SMT-LIB.  They were exported from the
v9.2.1 realease of TPTP.
|)
(set-info :category "industrial")
(set-info :status "unknown")
; SZS status Success
(declare-sort $$unsorted 0)
(declare-sort |tptp.'S2'| 0)
(declare-sort |tptp.'S4'| 0)
(declare-sort |tptp.'S6'| 0)
(declare-sort |tptp.'S5'| 0)
(declare-sort |tptp.'S1'| 0)
(declare-sort |tptp.'S3'| 0)
(declare-fun tptp.f12 (|tptp.'S6'| |tptp.'S4'|) Int)
(declare-fun tptp.f11 () |tptp.'S5'|)
(declare-fun tptp.f4 () |tptp.'S2'|)
(declare-fun tptp.f10 (|tptp.'S5'| Int) |tptp.'S4'|)
(declare-fun tptp.f9 () |tptp.'S2'|)
(declare-fun tptp.f7 () |tptp.'S3'|)
(declare-fun tptp.f3 (|tptp.'S2'| Real) Real)
(declare-fun tptp.f8 () |tptp.'S4'|)
(declare-fun tptp.f5 () Real)
(declare-fun tptp.f1 () |tptp.'S1'|)
(declare-fun tptp.f2 () |tptp.'S1'|)
(declare-fun tptp.f6 (|tptp.'S3'| |tptp.'S4'|) Real)
(declare-fun tptp.f13 () |tptp.'S6'|)
(assert (not (= tptp.f1 tptp.f2)))
(assert true)
(assert (= (tptp.f3 tptp.f4 (/ (* 2.0 tptp.f5) (tptp.f6 tptp.f7 tptp.f8))) 0.0))
(assert (= (tptp.f3 tptp.f9 (/ (* 2.0 tptp.f5) (tptp.f6 tptp.f7 tptp.f8))) 0.0))
(assert (forall ((A__questionmark_v0 Real)) (= (tptp.f3 tptp.f9 (- A__questionmark_v0 tptp.f5)) (- (tptp.f3 tptp.f9 A__questionmark_v0)))))
(assert (forall ((A__questionmark_v0 Real)) (exists ((A__questionmark_v_0_1 Real)) (and (= A__questionmark_v_0_1 0.0) (=> (< A__questionmark_v_0_1 A__questionmark_v0) (=> (< A__questionmark_v0 (* 2.0 tptp.f5)) (or (not (= (tptp.f3 tptp.f9 A__questionmark_v0) A__questionmark_v_0_1)) (not (= (tptp.f3 tptp.f4 A__questionmark_v0) 1.0)))))))))
(assert (forall ((A__questionmark_v0 Real) (A__questionmark_v1 |tptp.'S4'|)) (exists ((A__questionmark_v_0_2 Real)) (and (= A__questionmark_v_0_2 2.0) (= (tptp.f3 tptp.f4 (+ A__questionmark_v0 (/ (* (tptp.f6 tptp.f7 (tptp.f10 tptp.f11 (+ (tptp.f12 tptp.f13 A__questionmark_v1) 1))) tptp.f5) A__questionmark_v_0_2))) (- (tptp.f3 tptp.f9 (+ A__questionmark_v0 (/ (* (tptp.f6 tptp.f7 A__questionmark_v1) tptp.f5) A__questionmark_v_0_2)))))))))
(assert (forall ((A__questionmark_v0 Real) (A__questionmark_v1 |tptp.'S4'|)) (exists ((A__questionmark_v_0_3 Real)) (and (= A__questionmark_v_0_3 2.0) (= (tptp.f3 tptp.f9 (+ A__questionmark_v0 (/ (* (tptp.f6 tptp.f7 (tptp.f10 tptp.f11 (+ (tptp.f12 tptp.f13 A__questionmark_v1) 1))) tptp.f5) A__questionmark_v_0_3))) (tptp.f3 tptp.f4 (+ A__questionmark_v0 (/ (* (tptp.f6 tptp.f7 A__questionmark_v1) tptp.f5) A__questionmark_v_0_3))))))))
(assert (forall ((A__questionmark_v0 Real)) (= (tptp.f3 tptp.f4 A__questionmark_v0) (tptp.f3 tptp.f9 (- (/ tptp.f5 2.0) A__questionmark_v0)))))
(assert (forall ((A__questionmark_v0 Real)) (= (tptp.f3 tptp.f9 A__questionmark_v0) (tptp.f3 tptp.f4 (- (/ tptp.f5 2.0) A__questionmark_v0)))))
(assert (forall ((A__questionmark_v0 Real)) (= (- (tptp.f3 tptp.f9 A__questionmark_v0)) (tptp.f3 tptp.f4 (+ A__questionmark_v0 (/ tptp.f5 2.0))))))
(assert (forall ((A__questionmark_v0 |tptp.'S4'|)) (= (tptp.f3 tptp.f9 (* tptp.f5 (tptp.f6 tptp.f7 A__questionmark_v0))) 0.0)))
(assert (forall ((A__questionmark_v0 |tptp.'S4'|)) (= (tptp.f3 tptp.f9 (* (tptp.f6 tptp.f7 A__questionmark_v0) tptp.f5)) 0.0)))
(assert (forall ((A__questionmark_v0 |tptp.'S4'|)) (= (tptp.f3 tptp.f9 (* (* 2.0 (tptp.f6 tptp.f7 A__questionmark_v0)) tptp.f5)) 0.0)))
(assert (forall ((A__questionmark_v0 |tptp.'S4'|)) (= (tptp.f3 tptp.f4 (* (* 2.0 (tptp.f6 tptp.f7 A__questionmark_v0)) tptp.f5)) 1.0)))
(assert (forall ((A__questionmark_v0 |tptp.'S4'|)) (<= 0.0 (tptp.f6 tptp.f7 A__questionmark_v0))))
(assert (= (tptp.f3 tptp.f9 tptp.f5) 0.0))
(assert (forall ((A__questionmark_v0 Real)) (= (tptp.f3 tptp.f9 (+ tptp.f5 A__questionmark_v0)) (- (tptp.f3 tptp.f9 A__questionmark_v0)))))
(assert (forall ((A__questionmark_v0 |tptp.'S4'|) (A__questionmark_v1 |tptp.'S4'|)) (exists ((A__questionmark_v_0_4 Int) (A__questionmark_v_1_5 Int)) (and (= A__questionmark_v_0_4 (tptp.f12 tptp.f13 A__questionmark_v1)) (= A__questionmark_v_1_5 (tptp.f12 tptp.f13 A__questionmark_v0)) (=> (<= A__questionmark_v_1_5 A__questionmark_v_0_4) (= (tptp.f6 tptp.f7 (tptp.f10 tptp.f11 (- A__questionmark_v_0_4 A__questionmark_v_1_5))) (- (tptp.f6 tptp.f7 A__questionmark_v1) (tptp.f6 tptp.f7 A__questionmark_v0))))))))
(assert (forall ((A__questionmark_v0 |tptp.'S4'|) (A__questionmark_v1 |tptp.'S4'|)) (= (<= (tptp.f6 tptp.f7 A__questionmark_v0) (tptp.f6 tptp.f7 A__questionmark_v1)) (<= (tptp.f12 tptp.f13 A__questionmark_v0) (tptp.f12 tptp.f13 A__questionmark_v1)))))
(assert (forall ((A__questionmark_v0 |tptp.'S4'|) (A__questionmark_v1 |tptp.'S4'|)) (= (< (tptp.f6 tptp.f7 A__questionmark_v0) (tptp.f6 tptp.f7 A__questionmark_v1)) (< (tptp.f12 tptp.f13 A__questionmark_v0) (tptp.f12 tptp.f13 A__questionmark_v1)))))
(assert (forall ((A__questionmark_v0 |tptp.'S4'|) (A__questionmark_v1 |tptp.'S4'|)) (= (= (tptp.f6 tptp.f7 A__questionmark_v0) (tptp.f6 tptp.f7 A__questionmark_v1)) (= A__questionmark_v0 A__questionmark_v1))))
(assert (forall ((A__questionmark_v0 |tptp.'S4'|)) (= (<= (tptp.f6 tptp.f7 A__questionmark_v0) 0.0) (= A__questionmark_v0 (tptp.f10 tptp.f11 0)))))
(assert (forall ((A__questionmark_v0 |tptp.'S4'|)) (= (= (tptp.f6 tptp.f7 A__questionmark_v0) 0.0) (= A__questionmark_v0 (tptp.f10 tptp.f11 0)))))
(assert (forall ((A__questionmark_v0 |tptp.'S4'|) (A__questionmark_v1 |tptp.'S4'|)) (= (< (tptp.f12 tptp.f13 A__questionmark_v0) (tptp.f12 tptp.f13 A__questionmark_v1)) (<= (+ (tptp.f6 tptp.f7 A__questionmark_v0) 1.0) (tptp.f6 tptp.f7 A__questionmark_v1)))))
(assert (forall ((A__questionmark_v0 |tptp.'S4'|) (A__questionmark_v1 |tptp.'S4'|)) (= (<= (tptp.f12 tptp.f13 A__questionmark_v0) (tptp.f12 tptp.f13 A__questionmark_v1)) (< (tptp.f6 tptp.f7 A__questionmark_v0) (+ (tptp.f6 tptp.f7 A__questionmark_v1) 1.0)))))
(assert (forall ((A__questionmark_v0 |tptp.'S4'|)) (= (< 0.0 (tptp.f6 tptp.f7 A__questionmark_v0)) (< 0 (tptp.f12 tptp.f13 A__questionmark_v0)))))
(assert (forall ((A__questionmark_v0 |tptp.'S4'|) (A__questionmark_v1 |tptp.'S4'|)) (= (tptp.f6 tptp.f7 (tptp.f10 tptp.f11 (+ (tptp.f12 tptp.f13 A__questionmark_v0) (tptp.f12 tptp.f13 A__questionmark_v1)))) (+ (tptp.f6 tptp.f7 A__questionmark_v0) (tptp.f6 tptp.f7 A__questionmark_v1)))))
(assert (forall ((A__questionmark_v0 |tptp.'S4'|)) (= (tptp.f6 tptp.f7 (tptp.f10 tptp.f11 (+ (tptp.f12 tptp.f13 A__questionmark_v0) 1))) (+ (tptp.f6 tptp.f7 A__questionmark_v0) 1.0))))
(assert (forall ((A__questionmark_v0 |tptp.'S4'|)) (exists ((A__questionmark_v_0_6 Real)) (let ((_let_1 (< A__questionmark_v_0_6 0.0))) (and (= A__questionmark_v_0_6 (tptp.f6 tptp.f7 A__questionmark_v0)) (=> _let_1 (= (- A__questionmark_v_0_6) A__questionmark_v_0_6)) (=> (not _let_1) (= A__questionmark_v_0_6 A__questionmark_v_0_6)))))))
(assert (= (tptp.f6 tptp.f7 (tptp.f10 tptp.f11 (+ 0 1))) 1.0))
(assert (= (tptp.f6 tptp.f7 (tptp.f10 tptp.f11 0)) 0.0))
(assert (= (tptp.f6 tptp.f7 (tptp.f10 tptp.f11 1)) 1.0))
(assert (forall ((A__questionmark_v0 |tptp.'S4'|)) (< 0.0 (tptp.f6 tptp.f7 (tptp.f10 tptp.f11 (+ (tptp.f12 tptp.f13 A__questionmark_v0) 1))))))
(assert (forall ((A__questionmark_v0 |tptp.'S4'|)) (not (< (tptp.f6 tptp.f7 A__questionmark_v0) 0.0))))
(assert (forall ((A__questionmark_v0 Real)) (exists ((A__questionmark_v_0_7 Real)) (and (= A__questionmark_v_0_7 2.0) (=> (< 0.0 A__questionmark_v0) (=> (< A__questionmark_v0 A__questionmark_v_0_7) (< (tptp.f3 tptp.f4 (* A__questionmark_v_0_7 A__questionmark_v0)) 1.0)))))))
(assert (forall ((A__questionmark_v0 |tptp.'S4'|)) (= (tptp.f10 tptp.f11 (tptp.f12 tptp.f13 A__questionmark_v0)) A__questionmark_v0)))
(assert (forall ((A__questionmark_v0 Int)) (=> (<= 0 A__questionmark_v0) (= (tptp.f12 tptp.f13 (tptp.f10 tptp.f11 A__questionmark_v0)) A__questionmark_v0))))
(assert (forall ((A__questionmark_v0 Int)) (=> (< A__questionmark_v0 0) (= (tptp.f12 tptp.f13 (tptp.f10 tptp.f11 A__questionmark_v0)) 0))))
(check-sat)
